c File: instances/36_0.20_3.col
c
c Description: Random graph of size 36 vertices and P(0.2) of edges between any two vertices.
p col 36 630
e 1 2
e 1 4
e 1 34
e 2 3
e 2 7
e 2 15
e 2 16
e 2 18
e 2 19
e 2 20
e 2 25
e 2 28
e 3 5
e 3 14
e 3 16
e 3 17
e 3 19
e 3 28
e 3 29
e 3 30
e 3 36
e 4 5
e 4 6
e 4 16
e 4 22
e 4 24
e 4 26
e 4 27
e 4 29
e 4 33
e 5 6
e 5 17
e 5 20
e 5 24
e 5 27
e 5 29
e 6 13
e 6 22
e 6 27
e 7 8
e 7 10
e 7 16
e 7 21
e 7 27
e 7 28
e 7 33
e 7 34
e 8 10
e 8 11
e 8 17
e 8 18
e 8 19
e 8 21
e 8 24
e 8 25
e 8 33
e 8 35
e 9 11
e 9 16
e 9 24
e 9 25
e 10 14
e 10 15
e 10 36
e 11 22
e 11 23
e 11 24
e 11 27
e 12 18
e 12 27
e 12 28
e 12 31
e 13 19
e 13 26
e 13 29
e 13 34
e 14 22
e 14 23
e 14 25
e 14 26
e 14 35
e 15 18
e 15 20
e 15 29
e 15 31
e 15 35
e 16 20
e 16 22
e 16 24
e 16 25
e 16 33
e 17 20
e 17 36
e 18 21
e 18 24
e 18 25
e 18 27
e 18 30
e 18 32
e 19 24
e 20 25
e 20 32
e 21 23
e 21 28
e 21 29
e 21 30
e 21 31
e 22 24
e 22 25
e 22 26
e 22 29
e 22 30
e 22 34
e 23 27
e 23 33
e 23 36
e 24 31
e 24 34
e 25 26
e 25 27
e 25 30
e 26 33
e 26 34
e 27 31
e 28 31
e 28 35
e 30 32